************************************************************************
file with basedata            : mm52_.bas
initial value random generator: 1424037310
************************************************************************
projects                      :  1
jobs (incl. supersource/sink ):  12
horizon                       :  72
RESOURCES
  - renewable                 :  2   R
  - nonrenewable              :  2   N
  - doubly constrained        :  0   D
************************************************************************
PROJECT INFORMATION:
pronr.  #jobs rel.date duedate tardcost  MPM-Time
    1     10      0       10        4       10
************************************************************************
PRECEDENCE RELATIONS:
jobnr.    #modes  #successors   successors
   0        1          3           1   2   3
   1        3          3           5   6   9
   2        3          1           4
   3        3          3           5   7   9
   4        3          2           6   7
   5        3          1          10
   6        3          1          10
   7        3          1           8
   8        3          1          11
   9        3          1          11
  10        3          1          11
  11        1          0        
************************************************************************
REQUESTS/DURATIONS:
jobnr. mode duration  R 1  R 2  R 3  R 4  E(W 1)  E(W 2)
------------------------------------------------------------------------
  0      1     0       0    0    0    0     0       0
  1      1     3       2    7    8    0    27      24
  2      1     2       4    6    0    5    20      10
  3      1     4       9   10    0   10    76      40
  4      1     1       7   10    0    5    17       5
  5      1     1       8    1    8    0    10       8
  6      1     1       5    7    8    0    12       8
  7      1     1       9    8    8    0    17       8
  8      1     5       4    2    0    3    30      15
  9      1     2       2    8    0    5    20      10
 10      1     3       5    5    0    8    30      24
 11      1     0       0    0    0    0     0       0
************************************************************************
RESOURCEAVAILABILITIES:
  R 1  R 2
   38   104
************************************************************************
RESOURCE LIMITS:
jobnr.  l(R 1)  u(R 1)  l(R 2)  u(R 2)
------------------------------------------------------------------------
  0        0       0       0       0
  1        5       9       4       8
  2        5      10       3       5
  3       10      19       5      10
  4        9      17       3       5
  5        5      10       4       8
  6        7      12       4       8
  7        9      17       4       8
  8        3       6       2       3
  9        5      10       3       5
 10        6      10       4       8
 11        0       0       0       0
************************************************************************
SCENARIOS:
------------------------------------------------------------------------
RESOURCE k = 1
s = 1: (0, 27, 15, 91, 18, 7, 10, 16, 30, 16, 21, 0)
s = 2: (0, 29, 13, 52, 24, 11, 9, 13, 37, 13, 23, 0)
s = 3: (0, 37, 20, 94, 24, 18, 10, 25, 37, 16, 19, 0)
s = 4: (0, 50, 12, 65, 29, 10, 11, 13, 31, 19, 22, 0)
s = 5: (0, 37, 18, 69, 23, 8, 16, 25, 43, 16, 21, 0)
s = 6: (0, 21, 22, 73, 23, 10, 13, 12, 19, 25, 36, 0)
s = 7: (0, 37, 15, 42, 15, 10, 11, 17, 23, 17, 30, 0)
s = 8: (0, 24, 22, 86, 16, 6, 19, 16, 33, 19, 27, 0)
s = 9: (0, 29, 19, 75, 25, 8, 14, 26, 24, 16, 22, 0)
s = 10: (0, 24, 31, 77, 16, 8, 12, 14, 28, 27, 25, 0)
s = 11: (0, 35, 13, 79, 15, 8, 10, 25, 42, 23, 20, 0)
s = 12: (0, 24, 28, 63, 25, 10, 11, 18, 51, 19, 33, 0)
s = 13: (0, 30, 31, 89, 19, 12, 12, 13, 23, 16, 24, 0)
s = 14: (0, 32, 22, 50, 33, 9, 11, 10, 25, 21, 24, 0)
s = 15: (0, 35, 12, 108, 23, 13, 12, 19, 53, 26, 23, 0)
s = 16: (0, 29, 20, 48, 13, 14, 10, 10, 24, 17, 35, 0)
s = 17: (0, 19, 16, 57, 13, 14, 13, 24, 31, 13, 39, 0)
s = 18: (0, 36, 14, 91, 12, 18, 12, 18, 30, 18, 43, 0)
s = 19: (0, 21, 29, 62, 20, 10, 14, 17, 57, 12, 22, 0)
s = 20: (0, 32, 19, 54, 11, 14, 10, 15, 32, 15, 24, 0)
s = 21: (0, 16, 24, 75, 24, 8, 14, 21, 26, 17, 20, 0)
s = 22: (0, 22, 16, 71, 15, 9, 13, 15, 43, 22, 29, 0)
s = 23: (0, 24, 24, 53, 22, 14, 9, 26, 35, 22, 27, 0)
s = 24: (0, 19, 28, 71, 13, 9, 13, 12, 39, 27, 21, 0)
s = 25: (0, 22, 27, 99, 19, 10, 15, 27, 27, 26, 23, 0)
s = 26: (0, 36, 19, 67, 15, 9, 14, 18, 31, 14, 37, 0)
s = 27: (0, 27, 12, 59, 22, 11, 10, 22, 32, 27, 34, 0)
s = 28: (0, 23, 21, 93, 13, 10, 10, 19, 23, 14, 24, 0)
s = 29: (0, 26, 22, 75, 19, 12, 10, 23, 23, 19, 36, 0)
s = 30: (0, 41, 16, 70, 16, 7, 9, 10, 30, 24, 18, 0)
s = 31: (0, 31, 19, 53, 13, 11, 12, 28, 23, 27, 32, 0)
s = 32: (0, 18, 15, 76, 22, 12, 13, 14, 35, 16, 37, 0)
s = 33: (0, 31, 34, 58, 16, 14, 16, 18, 43, 20, 30, 0)
s = 34: (0, 24, 19, 65, 13, 8, 9, 16, 32, 18, 31, 0)
s = 35: (0, 37, 17, 76, 12, 11, 9, 15, 30, 32, 41, 0)
s = 36: (0, 21, 12, 82, 12, 10, 9, 13, 25, 33, 39, 0)
s = 37: (0, 32, 19, 41, 17, 9, 9, 17, 37, 25, 23, 0)
s = 38: (0, 26, 18, 77, 17, 10, 8, 27, 19, 29, 30, 0)
s = 39: (0, 20, 24, 77, 12, 11, 16, 24, 39, 32, 38, 0)
s = 40: (0, 26, 38, 72, 18, 8, 16, 17, 40, 28, 29, 0)
s = 41: (0, 28, 24, 120, 20, 7, 14, 15, 48, 21, 32, 0)
s = 42: (0, 30, 16, 48, 27, 8, 21, 18, 29, 21, 35, 0)
s = 43: (0, 25, 26, 88, 15, 17, 9, 13, 56, 13, 33, 0)
s = 44: (0, 30, 21, 56, 17, 7, 12, 13, 29, 27, 20, 0)
s = 45: (0, 48, 28, 81, 14, 8, 14, 22, 20, 18, 39, 0)
s = 46: (0, 21, 19, 78, 11, 12, 10, 24, 49, 20, 30, 0)
s = 47: (0, 16, 23, 106, 26, 14, 11, 13, 17, 21, 38, 0)
s = 48: (0, 33, 25, 88, 17, 12, 12, 12, 37, 20, 23, 0)
s = 49: (0, 31, 26, 76, 26, 6, 12, 17, 28, 31, 37, 0)
s = 50: (0, 29, 13, 102, 24, 10, 9, 20, 30, 18, 45, 0)
s = 51: (0, 27, 35, 54, 19, 16, 9, 22, 20, 14, 25, 0)
s = 52: (0, 44, 11, 63, 14, 15, 15, 26, 32, 17, 42, 0)
s = 53: (0, 44, 18, 76, 14, 9, 16, 13, 23, 27, 37, 0)
s = 54: (0, 24, 26, 99, 24, 13, 21, 24, 24, 16, 39, 0)
s = 55: (0, 27, 20, 86, 13, 18, 16, 11, 33, 25, 40, 0)
s = 56: (0, 28, 17, 95, 21, 9, 8, 26, 18, 23, 25, 0)
s = 57: (0, 42, 17, 132, 11, 14, 12, 12, 39, 26, 24, 0)
s = 58: (0, 22, 16, 60, 16, 7, 8, 16, 36, 18, 17, 0)
s = 59: (0, 20, 27, 95, 21, 8, 9, 20, 28, 16, 29, 0)
s = 60: (0, 29, 28, 68, 26, 7, 8, 24, 26, 27, 33, 0)
s = 61: (0, 21, 11, 56, 19, 8, 12, 14, 23, 16, 19, 0)
s = 62: (0, 30, 15, 93, 14, 12, 20, 11, 41, 22, 40, 0)
s = 63: (0, 25, 22, 106, 19, 15, 13, 15, 39, 19, 26, 0)
s = 64: (0, 33, 26, 76, 31, 15, 11, 16, 39, 25, 29, 0)
s = 65: (0, 17, 32, 56, 14, 14, 10, 15, 29, 27, 30, 0)
s = 66: (0, 30, 24, 73, 24, 10, 17, 19, 23, 20, 19, 0)
s = 67: (0, 19, 18, 145, 13, 11, 14, 20, 34, 17, 35, 0)
s = 68: (0, 15, 26, 71, 12, 13, 19, 14, 34, 16, 36, 0)
s = 69: (0, 33, 29, 52, 14, 13, 13, 16, 49, 30, 50, 0)
s = 70: (0, 24, 20, 44, 26, 9, 16, 17, 30, 22, 31, 0)
s = 71: (0, 40, 13, 105, 13, 14, 12, 21, 27, 15, 34, 0)
s = 72: (0, 35, 23, 45, 16, 7, 10, 11, 29, 13, 25, 0)
s = 73: (0, 34, 25, 72, 23, 16, 13, 18, 24, 27, 39, 0)
s = 74: (0, 36, 32, 103, 18, 14, 14, 21, 33, 12, 32, 0)
s = 75: (0, 28, 30, 78, 16, 13, 10, 13, 18, 18, 22, 0)
s = 76: (0, 28, 24, 134, 19, 8, 20, 12, 33, 12, 31, 0)
s = 77: (0, 22, 16, 113, 20, 8, 20, 20, 38, 14, 39, 0)
s = 78: (0, 18, 13, 73, 22, 9, 13, 13, 29, 28, 22, 0)
s = 79: (0, 20, 21, 80, 11, 12, 12, 13, 24, 29, 31, 0)
s = 80: (0, 42, 19, 62, 12, 7, 8, 10, 22, 31, 31, 0)
s = 81: (0, 33, 23, 58, 16, 10, 11, 13, 43, 19, 41, 0)
s = 82: (0, 22, 22, 65, 20, 11, 17, 22, 43, 25, 21, 0)
s = 83: (0, 32, 26, 69, 28, 6, 8, 13, 38, 17, 23, 0)
s = 84: (0, 42, 26, 90, 15, 9, 15, 15, 51, 14, 23, 0)
s = 85: (0, 27, 14, 94, 25, 12, 16, 18, 29, 32, 22, 0)
s = 86: (0, 31, 15, 51, 11, 6, 12, 19, 37, 19, 36, 0)
s = 87: (0, 23, 25, 81, 18, 13, 12, 15, 44, 18, 38, 0)
s = 88: (0, 17, 27, 88, 18, 10, 14, 17, 22, 20, 31, 0)
s = 89: (0, 21, 13, 55, 18, 8, 10, 17, 24, 14, 26, 0)
s = 90: (0, 27, 29, 62, 20, 10, 7, 19, 50, 23, 43, 0)
s = 91: (0, 28, 22, 88, 15, 15, 8, 11, 35, 32, 26, 0)
s = 92: (0, 40, 23, 82, 12, 11, 14, 14, 43, 21, 19, 0)
s = 93: (0, 16, 17, 86, 13, 11, 16, 18, 35, 26, 24, 0)
s = 94: (0, 23, 17, 54, 20, 10, 9, 9, 36, 22, 23, 0)
s = 95: (0, 41, 17, 94, 16, 13, 18, 18, 35, 33, 31, 0)
s = 96: (0, 38, 22, 94, 15, 11, 8, 14, 27, 19, 25, 0)
s = 97: (0, 29, 20, 98, 17, 7, 20, 14, 27, 20, 23, 0)
s = 98: (0, 22, 29, 64, 16, 6, 10, 19, 25, 25, 24, 0)
s = 99: (0, 29, 23, 53, 17, 8, 12, 17, 20, 15, 28, 0)
s = 100: (0, 30, 21, 55, 12, 13, 14, 19, 48, 20, 33, 0)
s = 101: (0, 20, 25, 65, 23, 11, 11, 17, 41, 19, 17, 0)
s = 102: (0, 26, 19, 69, 14, 14, 21, 18, 21, 30, 29, 0)
s = 103: (0, 16, 16, 85, 10, 11, 10, 21, 39, 22, 31, 0)
s = 104: (0, 16, 15, 94, 21, 8, 21, 18, 25, 23, 24, 0)
s = 105: (0, 18, 24, 110, 13, 11, 10, 13, 26, 24, 22, 0)
s = 106: (0, 24, 14, 41, 14, 10, 11, 19, 28, 15, 31, 0)
s = 107: (0, 24, 14, 84, 18, 14, 16, 19, 42, 29, 37, 0)
s = 108: (0, 27, 15, 60, 10, 6, 19, 19, 22, 20, 39, 0)
s = 109: (0, 19, 20, 60, 15, 12, 13, 19, 19, 20, 22, 0)
s = 110: (0, 24, 29, 68, 17, 7, 15, 15, 31, 16, 37, 0)
s = 111: (0, 28, 15, 41, 13, 8, 13, 18, 33, 32, 26, 0)
s = 112: (0, 33, 15, 83, 12, 6, 7, 16, 36, 12, 39, 0)
s = 113: (0, 29, 16, 62, 14, 11, 12, 12, 25, 14, 26, 0)
s = 114: (0, 30, 21, 82, 20, 13, 15, 17, 27, 26, 44, 0)
s = 115: (0, 20, 26, 88, 15, 13, 7, 24, 29, 14, 19, 0)
s = 116: (0, 26, 18, 90, 20, 8, 12, 13, 23, 36, 34, 0)
s = 117: (0, 28, 37, 77, 27, 17, 10, 25, 21, 22, 23, 0)
s = 118: (0, 31, 19, 111, 20, 11, 13, 16, 30, 29, 38, 0)
s = 119: (0, 33, 17, 87, 19, 11, 18, 17, 21, 16, 19, 0)
s = 120: (0, 31, 17, 72, 14, 11, 11, 13, 28, 19, 39, 0)
s = 121: (0, 27, 15, 46, 17, 10, 15, 15, 31, 23, 49, 0)
s = 122: (0, 17, 17, 52, 11, 8, 13, 16, 31, 32, 27, 0)
s = 123: (0, 18, 15, 85, 28, 9, 11, 13, 19, 15, 29, 0)
s = 124: (0, 33, 20, 57, 14, 11, 18, 15, 46, 15, 26, 0)
s = 125: (0, 24, 21, 100, 11, 11, 12, 11, 33, 15, 26, 0)
s = 126: (0, 32, 25, 71, 22, 11, 18, 10, 33, 20, 25, 0)
s = 127: (0, 31, 17, 80, 16, 15, 12, 17, 27, 12, 27, 0)
s = 128: (0, 24, 25, 65, 27, 8, 12, 15, 44, 25, 19, 0)
s = 129: (0, 29, 17, 51, 20, 11, 15, 15, 30, 30, 37, 0)
s = 130: (0, 20, 21, 64, 17, 6, 9, 13, 28, 24, 34, 0)
s = 131: (0, 38, 20, 79, 19, 12, 9, 21, 39, 15, 38, 0)
s = 132: (0, 27, 16, 70, 26, 14, 15, 15, 25, 21, 21, 0)
s = 133: (0, 30, 30, 83, 12, 8, 15, 18, 32, 12, 31, 0)
s = 134: (0, 32, 26, 78, 16, 11, 8, 15, 29, 27, 41, 0)
s = 135: (0, 16, 16, 102, 23, 6, 15, 11, 26, 26, 36, 0)
s = 136: (0, 36, 31, 83, 19, 9, 19, 15, 20, 25, 29, 0)
s = 137: (0, 20, 23, 74, 21, 10, 13, 19, 34, 15, 36, 0)
s = 138: (0, 15, 15, 50, 14, 8, 10, 11, 29, 20, 27, 0)
s = 139: (0, 19, 15, 79, 22, 9, 11, 19, 29, 34, 37, 0)
s = 140: (0, 18, 25, 69, 12, 10, 11, 12, 27, 14, 23, 0)
s = 141: (0, 32, 19, 104, 11, 10, 14, 29, 45, 26, 32, 0)
s = 142: (0, 25, 21, 68, 24, 10, 8, 17, 39, 22, 37, 0)
s = 143: (0, 23, 26, 48, 11, 8, 11, 9, 49, 16, 26, 0)
s = 144: (0, 24, 22, 71, 13, 8, 9, 18, 20, 26, 21, 0)
s = 145: (0, 36, 15, 67, 20, 8, 13, 15, 32, 20, 31, 0)
s = 146: (0, 19, 16, 74, 11, 14, 10, 18, 37, 26, 37, 0)
s = 147: (0, 31, 15, 74, 19, 11, 21, 16, 30, 23, 19, 0)
s = 148: (0, 23, 24, 75, 20, 14, 10, 17, 59, 25, 35, 0)
s = 149: (0, 28, 17, 65, 19, 12, 7, 25, 24, 19, 36, 0)
s = 150: (0, 29, 18, 86, 11, 9, 12, 22, 23, 20, 29, 0)
s = 151: (0, 24, 23, 80, 10, 11, 18, 14, 40, 28, 20, 0)
s = 152: (0, 32, 21, 93, 19, 7, 10, 21, 24, 20, 23, 0)
s = 153: (0, 26, 17, 67, 17, 10, 12, 20, 38, 23, 18, 0)
s = 154: (0, 33, 14, 119, 11, 9, 12, 21, 31, 17, 25, 0)
s = 155: (0, 16, 25, 94, 16, 14, 14, 18, 35, 14, 32, 0)
s = 156: (0, 24, 18, 80, 14, 12, 11, 10, 35, 24, 35, 0)
s = 157: (0, 23, 22, 116, 11, 14, 12, 16, 36, 23, 50, 0)
s = 158: (0, 43, 20, 87, 22, 8, 15, 12, 27, 16, 42, 0)
s = 159: (0, 22, 18, 103, 15, 12, 16, 11, 30, 34, 22, 0)
s = 160: (0, 20, 15, 88, 14, 12, 9, 13, 25, 29, 32, 0)
s = 161: (0, 26, 15, 61, 23, 7, 17, 13, 25, 13, 47, 0)
s = 162: (0, 27, 18, 78, 12, 9, 12, 22, 31, 36, 29, 0)
s = 163: (0, 33, 30, 72, 18, 11, 9, 29, 22, 27, 29, 0)
s = 164: (0, 19, 24, 81, 17, 9, 12, 18, 28, 17, 18, 0)
s = 165: (0, 26, 21, 155, 11, 14, 18, 27, 34, 19, 29, 0)
s = 166: (0, 32, 13, 111, 24, 8, 11, 16, 42, 14, 18, 0)
s = 167: (0, 35, 14, 91, 16, 8, 10, 18, 33, 22, 29, 0)
s = 168: (0, 22, 22, 69, 23, 9, 17, 17, 23, 33, 35, 0)
s = 169: (0, 23, 18, 102, 14, 9, 9, 13, 36, 15, 28, 0)
s = 170: (0, 32, 20, 102, 17, 10, 7, 24, 18, 21, 24, 0)
s = 171: (0, 37, 27, 76, 14, 11, 10, 23, 26, 19, 32, 0)
s = 172: (0, 31, 13, 126, 30, 7, 12, 24, 26, 16, 28, 0)
s = 173: (0, 23, 21, 125, 22, 8, 11, 21, 30, 14, 34, 0)
s = 174: (0, 26, 29, 64, 21, 12, 14, 19, 21, 24, 24, 0)
s = 175: (0, 36, 20, 65, 24, 7, 7, 11, 26, 14, 27, 0)
s = 176: (0, 26, 19, 58, 15, 7, 9, 13, 23, 27, 32, 0)
s = 177: (0, 39, 15, 61, 24, 10, 18, 28, 28, 20, 27, 0)
s = 178: (0, 26, 21, 65, 21, 10, 12, 14, 37, 18, 33, 0)
s = 179: (0, 39, 16, 100, 30, 10, 18, 15, 31, 16, 29, 0)
s = 180: (0, 17, 20, 56, 13, 12, 13, 15, 23, 19, 21, 0)
s = 181: (0, 26, 15, 117, 19, 9, 13, 20, 38, 25, 47, 0)
s = 182: (0, 31, 16, 82, 14, 13, 16, 22, 19, 27, 36, 0)
s = 183: (0, 22, 15, 86, 18, 8, 14, 14, 27, 25, 36, 0)
s = 184: (0, 36, 16, 85, 16, 17, 10, 11, 48, 13, 31, 0)
s = 185: (0, 25, 23, 76, 12, 10, 15, 22, 34, 20, 28, 0)
s = 186: (0, 32, 20, 89, 16, 6, 19, 15, 24, 18, 29, 0)
s = 187: (0, 22, 14, 55, 16, 9, 12, 10, 47, 27, 35, 0)
s = 188: (0, 37, 24, 84, 23, 9, 17, 18, 22, 32, 40, 0)
s = 189: (0, 32, 22, 95, 9, 7, 13, 29, 17, 13, 42, 0)
s = 190: (0, 40, 19, 90, 13, 14, 12, 21, 19, 16, 41, 0)
s = 191: (0, 25, 30, 81, 13, 13, 15, 30, 16, 14, 30, 0)
s = 192: (0, 16, 18, 92, 18, 10, 12, 16, 42, 19, 38, 0)
s = 193: (0, 23, 18, 104, 20, 10, 16, 26, 25, 19, 32, 0)
s = 194: (0, 37, 23, 79, 19, 6, 15, 20, 19, 15, 19, 0)
s = 195: (0, 18, 16, 92, 21, 6, 11, 19, 18, 13, 50, 0)
s = 196: (0, 20, 16, 95, 14, 12, 11, 21, 24, 17, 22, 0)
s = 197: (0, 24, 21, 109, 14, 11, 15, 16, 32, 16, 22, 0)
s = 198: (0, 21, 25, 72, 26, 14, 10, 18, 25, 14, 28, 0)
s = 199: (0, 29, 38, 99, 17, 9, 16, 17, 17, 15, 19, 0)
s = 200: (0, 44, 20, 79, 12, 14, 16, 14, 35, 15, 32, 0)
------------------------------------------------------------------------
RESOURCE k = 2
s = 1: (0, 24, 8, 48, 6, 6, 7, 8, 15, 8, 17, 0)
s = 2: (0, 26, 7, 27, 7, 9, 6, 6, 19, 7, 18, 0)
s = 3: (0, 33, 10, 50, 7, 14, 7, 12, 19, 8, 15, 0)
s = 4: (0, 45, 6, 35, 9, 8, 8, 6, 16, 10, 18, 0)
s = 5: (0, 33, 9, 36, 7, 7, 11, 12, 22, 8, 17, 0)
s = 6: (0, 18, 11, 39, 7, 8, 9, 6, 10, 13, 29, 0)
s = 7: (0, 33, 8, 22, 5, 8, 8, 8, 12, 9, 24, 0)
s = 8: (0, 22, 11, 46, 5, 5, 13, 8, 17, 10, 22, 0)
s = 9: (0, 26, 10, 40, 8, 7, 9, 12, 12, 8, 18, 0)
s = 10: (0, 22, 16, 41, 5, 6, 8, 7, 14, 14, 20, 0)
s = 11: (0, 31, 7, 42, 5, 6, 7, 12, 21, 12, 16, 0)
s = 12: (0, 21, 14, 34, 8, 8, 8, 9, 26, 10, 26, 0)
s = 13: (0, 27, 16, 47, 6, 9, 8, 6, 12, 8, 19, 0)
s = 14: (0, 29, 11, 27, 10, 7, 8, 5, 13, 11, 19, 0)
s = 15: (0, 32, 6, 57, 7, 10, 8, 9, 27, 13, 18, 0)
s = 16: (0, 26, 10, 25, 4, 11, 7, 5, 12, 9, 28, 0)
s = 17: (0, 17, 8, 30, 4, 11, 9, 11, 16, 7, 31, 0)
s = 18: (0, 32, 7, 48, 4, 14, 8, 9, 15, 9, 34, 0)
s = 19: (0, 19, 15, 33, 6, 8, 10, 8, 29, 6, 17, 0)
s = 20: (0, 29, 10, 29, 3, 11, 7, 7, 16, 8, 19, 0)
s = 21: (0, 14, 12, 40, 7, 7, 9, 10, 13, 9, 16, 0)
s = 22: (0, 20, 8, 37, 5, 7, 9, 7, 22, 11, 24, 0)
s = 23: (0, 21, 12, 28, 7, 11, 6, 12, 18, 11, 22, 0)
s = 24: (0, 17, 14, 37, 4, 7, 9, 6, 20, 14, 17, 0)
s = 25: (0, 20, 14, 52, 6, 8, 10, 13, 14, 13, 18, 0)
s = 26: (0, 32, 10, 35, 5, 7, 10, 9, 16, 7, 30, 0)
s = 27: (0, 24, 6, 31, 7, 9, 7, 11, 16, 14, 28, 0)
s = 28: (0, 21, 11, 49, 4, 8, 7, 9, 12, 7, 20, 0)
s = 29: (0, 23, 11, 40, 6, 9, 7, 11, 12, 10, 29, 0)
s = 30: (0, 37, 8, 37, 5, 6, 6, 5, 15, 12, 14, 0)
s = 31: (0, 27, 10, 28, 4, 9, 8, 13, 12, 14, 25, 0)
s = 32: (0, 16, 8, 40, 7, 10, 9, 7, 18, 8, 30, 0)
s = 33: (0, 27, 17, 31, 5, 11, 11, 9, 22, 10, 24, 0)
s = 34: (0, 21, 10, 35, 4, 6, 6, 8, 16, 9, 25, 0)
s = 35: (0, 33, 9, 40, 4, 9, 6, 7, 15, 16, 33, 0)
s = 36: (0, 19, 6, 43, 4, 8, 6, 6, 13, 17, 31, 0)
s = 37: (0, 29, 10, 22, 5, 8, 6, 8, 19, 13, 19, 0)
s = 38: (0, 23, 9, 41, 5, 8, 6, 13, 10, 15, 24, 0)
s = 39: (0, 18, 12, 41, 4, 9, 11, 12, 20, 16, 30, 0)
s = 40: (0, 23, 19, 38, 6, 7, 11, 8, 20, 14, 23, 0)
s = 41: (0, 25, 12, 63, 6, 6, 9, 7, 24, 11, 26, 0)
s = 42: (0, 26, 8, 25, 8, 7, 14, 9, 15, 11, 28, 0)
s = 43: (0, 23, 13, 46, 5, 14, 6, 6, 28, 7, 26, 0)
s = 44: (0, 27, 11, 30, 5, 6, 8, 6, 15, 14, 16, 0)
s = 45: (0, 43, 14, 43, 4, 6, 9, 10, 10, 9, 31, 0)
s = 46: (0, 19, 10, 41, 4, 10, 7, 11, 25, 10, 24, 0)
s = 47: (0, 14, 12, 56, 8, 11, 8, 7, 9, 11, 30, 0)
s = 48: (0, 29, 13, 47, 5, 9, 8, 6, 19, 10, 19, 0)
s = 49: (0, 28, 13, 40, 8, 5, 8, 8, 14, 16, 30, 0)
s = 50: (0, 26, 7, 54, 7, 8, 6, 10, 15, 9, 36, 0)
s = 51: (0, 24, 18, 29, 6, 13, 6, 11, 10, 7, 20, 0)
s = 52: (0, 39, 6, 33, 5, 12, 10, 13, 16, 9, 34, 0)
s = 53: (0, 39, 9, 40, 4, 7, 11, 7, 12, 14, 29, 0)
s = 54: (0, 21, 13, 52, 7, 11, 14, 12, 12, 8, 31, 0)
s = 55: (0, 24, 10, 46, 4, 14, 11, 5, 17, 13, 32, 0)
s = 56: (0, 25, 9, 50, 7, 8, 6, 13, 9, 12, 20, 0)
s = 57: (0, 37, 9, 70, 4, 11, 8, 6, 20, 13, 19, 0)
s = 58: (0, 19, 8, 32, 5, 5, 5, 8, 18, 9, 14, 0)
s = 59: (0, 18, 14, 50, 7, 6, 6, 10, 14, 8, 23, 0)
s = 60: (0, 26, 14, 36, 8, 6, 5, 12, 13, 14, 27, 0)
s = 61: (0, 19, 6, 30, 6, 7, 8, 7, 12, 8, 16, 0)
s = 62: (0, 27, 8, 49, 4, 10, 13, 6, 21, 11, 32, 0)
s = 63: (0, 22, 11, 56, 6, 12, 9, 7, 20, 10, 21, 0)
s = 64: (0, 29, 13, 40, 9, 12, 7, 8, 20, 13, 24, 0)
s = 65: (0, 15, 16, 30, 4, 11, 7, 7, 15, 14, 24, 0)
s = 66: (0, 27, 12, 39, 7, 8, 12, 9, 12, 10, 15, 0)
s = 67: (0, 17, 9, 77, 4, 9, 10, 10, 17, 9, 28, 0)
s = 68: (0, 14, 13, 38, 4, 10, 13, 7, 17, 8, 29, 0)
s = 69: (0, 29, 15, 28, 5, 11, 9, 8, 25, 15, 40, 0)
s = 70: (0, 22, 10, 24, 8, 7, 11, 8, 15, 11, 25, 0)
s = 71: (0, 36, 7, 55, 4, 11, 8, 10, 14, 8, 27, 0)
s = 72: (0, 31, 12, 24, 5, 6, 7, 6, 15, 7, 20, 0)
s = 73: (0, 30, 13, 38, 7, 13, 9, 9, 12, 14, 31, 0)
s = 74: (0, 32, 16, 55, 6, 11, 10, 10, 17, 6, 25, 0)
s = 75: (0, 25, 15, 41, 5, 11, 7, 6, 9, 9, 18, 0)
s = 76: (0, 25, 12, 71, 6, 7, 14, 6, 17, 6, 25, 0)
s = 77: (0, 19, 8, 59, 6, 6, 14, 9, 19, 7, 31, 0)
s = 78: (0, 16, 7, 39, 7, 7, 9, 6, 15, 14, 17, 0)
s = 79: (0, 18, 11, 43, 4, 10, 8, 6, 12, 15, 25, 0)
s = 80: (0, 37, 10, 33, 4, 6, 5, 5, 11, 16, 25, 0)
s = 81: (0, 30, 12, 31, 5, 8, 7, 6, 22, 10, 33, 0)
s = 82: (0, 20, 11, 34, 6, 9, 11, 10, 22, 13, 17, 0)
s = 83: (0, 28, 13, 37, 9, 5, 6, 6, 19, 9, 19, 0)
s = 84: (0, 38, 13, 47, 5, 7, 10, 7, 26, 7, 18, 0)
s = 85: (0, 24, 7, 50, 8, 10, 11, 9, 15, 16, 18, 0)
s = 86: (0, 28, 8, 27, 4, 5, 8, 9, 19, 10, 29, 0)
s = 87: (0, 20, 13, 43, 6, 10, 8, 7, 22, 9, 30, 0)
s = 88: (0, 15, 14, 47, 6, 8, 10, 8, 11, 10, 25, 0)
s = 89: (0, 18, 7, 29, 6, 6, 7, 8, 12, 7, 21, 0)
s = 90: (0, 24, 15, 33, 6, 8, 5, 9, 25, 12, 34, 0)
s = 91: (0, 25, 11, 46, 5, 12, 6, 5, 18, 16, 21, 0)
s = 92: (0, 36, 12, 44, 4, 9, 9, 7, 22, 11, 15, 0)
s = 93: (0, 14, 9, 46, 4, 9, 11, 9, 18, 13, 19, 0)
s = 94: (0, 21, 9, 29, 6, 8, 6, 5, 18, 11, 19, 0)
s = 95: (0, 36, 9, 50, 5, 11, 12, 9, 18, 17, 25, 0)
s = 96: (0, 34, 11, 50, 5, 9, 5, 7, 14, 10, 20, 0)
s = 97: (0, 26, 10, 52, 5, 6, 14, 7, 14, 10, 19, 0)
s = 98: (0, 20, 15, 34, 5, 5, 7, 9, 13, 13, 20, 0)
s = 99: (0, 26, 12, 28, 5, 7, 8, 8, 10, 8, 23, 0)
s = 100: (0, 27, 11, 29, 4, 10, 9, 9, 24, 10, 26, 0)
s = 101: (0, 18, 13, 35, 7, 9, 7, 8, 21, 10, 14, 0)
s = 102: (0, 24, 10, 36, 5, 11, 14, 9, 11, 15, 23, 0)
s = 103: (0, 15, 8, 45, 3, 9, 7, 10, 20, 11, 25, 0)
s = 104: (0, 15, 8, 50, 7, 7, 14, 9, 13, 12, 19, 0)
s = 105: (0, 16, 12, 58, 4, 9, 7, 6, 13, 12, 18, 0)
s = 106: (0, 22, 7, 22, 4, 8, 8, 9, 14, 8, 25, 0)
s = 107: (0, 21, 7, 44, 6, 11, 11, 9, 21, 15, 30, 0)
s = 108: (0, 24, 8, 32, 3, 5, 13, 9, 11, 10, 31, 0)
s = 109: (0, 17, 10, 32, 5, 10, 9, 9, 10, 10, 18, 0)
s = 110: (0, 21, 15, 36, 5, 5, 10, 7, 16, 8, 29, 0)
s = 111: (0, 25, 8, 22, 4, 6, 9, 9, 17, 16, 21, 0)
s = 112: (0, 30, 8, 44, 4, 5, 5, 8, 18, 6, 32, 0)
s = 113: (0, 26, 8, 33, 5, 9, 8, 6, 13, 7, 21, 0)
s = 114: (0, 27, 11, 44, 6, 10, 10, 8, 14, 13, 35, 0)
s = 115: (0, 18, 13, 47, 5, 10, 5, 11, 15, 7, 15, 0)
s = 116: (0, 23, 9, 48, 6, 7, 8, 7, 12, 18, 27, 0)
s = 117: (0, 25, 19, 41, 8, 13, 7, 12, 11, 11, 19, 0)
s = 118: (0, 28, 10, 59, 6, 9, 9, 8, 15, 15, 30, 0)
s = 119: (0, 30, 9, 46, 6, 9, 12, 8, 11, 8, 15, 0)
s = 120: (0, 28, 9, 38, 4, 9, 8, 6, 14, 10, 31, 0)
s = 121: (0, 24, 8, 24, 5, 8, 10, 7, 16, 12, 39, 0)
s = 122: (0, 15, 9, 28, 4, 6, 9, 8, 16, 16, 21, 0)
s = 123: (0, 16, 8, 45, 9, 7, 7, 6, 10, 8, 23, 0)
s = 124: (0, 30, 10, 30, 5, 9, 12, 7, 23, 8, 21, 0)
s = 125: (0, 21, 11, 53, 4, 9, 8, 5, 17, 8, 21, 0)
s = 126: (0, 28, 13, 38, 7, 9, 12, 5, 17, 10, 20, 0)
s = 127: (0, 28, 9, 42, 5, 12, 8, 8, 14, 6, 22, 0)
s = 128: (0, 21, 13, 34, 8, 7, 8, 7, 22, 13, 15, 0)
s = 129: (0, 26, 9, 27, 6, 9, 10, 7, 15, 15, 29, 0)
s = 130: (0, 18, 11, 34, 5, 5, 6, 6, 14, 12, 28, 0)
s = 131: (0, 34, 10, 42, 6, 10, 6, 10, 20, 8, 31, 0)
s = 132: (0, 24, 8, 37, 8, 11, 10, 7, 13, 11, 17, 0)
s = 133: (0, 27, 15, 44, 4, 7, 10, 9, 16, 6, 25, 0)
s = 134: (0, 28, 13, 41, 5, 9, 6, 7, 15, 14, 33, 0)
s = 135: (0, 14, 8, 54, 7, 5, 10, 5, 13, 13, 29, 0)
s = 136: (0, 32, 16, 44, 6, 7, 13, 7, 10, 13, 23, 0)
s = 137: (0, 18, 12, 39, 7, 8, 9, 9, 17, 8, 29, 0)
s = 138: (0, 14, 8, 26, 4, 7, 7, 6, 15, 10, 22, 0)
s = 139: (0, 17, 8, 42, 7, 7, 8, 9, 15, 17, 29, 0)
s = 140: (0, 16, 13, 37, 4, 8, 8, 6, 14, 7, 19, 0)
s = 141: (0, 29, 10, 55, 4, 8, 10, 14, 23, 13, 25, 0)
s = 142: (0, 22, 11, 36, 7, 8, 5, 8, 20, 11, 30, 0)
s = 143: (0, 21, 13, 26, 4, 6, 7, 5, 25, 8, 21, 0)
s = 144: (0, 22, 11, 38, 4, 7, 6, 9, 10, 13, 17, 0)
s = 145: (0, 32, 8, 35, 6, 6, 9, 7, 16, 10, 25, 0)
s = 146: (0, 17, 8, 39, 4, 11, 7, 9, 19, 13, 30, 0)
s = 147: (0, 28, 8, 39, 6, 9, 14, 8, 15, 12, 15, 0)
s = 148: (0, 20, 12, 40, 6, 11, 7, 8, 30, 13, 28, 0)
s = 149: (0, 25, 9, 35, 6, 10, 5, 12, 12, 10, 29, 0)
s = 150: (0, 25, 9, 45, 4, 8, 8, 11, 12, 10, 24, 0)
s = 151: (0, 22, 12, 42, 3, 9, 12, 7, 20, 14, 16, 0)
s = 152: (0, 28, 11, 49, 6, 6, 7, 10, 12, 10, 19, 0)
s = 153: (0, 23, 9, 35, 5, 8, 8, 10, 19, 12, 15, 0)
s = 154: (0, 29, 7, 63, 3, 7, 8, 10, 16, 9, 20, 0)
s = 155: (0, 15, 13, 50, 5, 11, 9, 9, 18, 7, 26, 0)
s = 156: (0, 22, 9, 42, 5, 10, 7, 5, 18, 12, 28, 0)
s = 157: (0, 21, 11, 61, 4, 12, 8, 8, 18, 12, 40, 0)
s = 158: (0, 38, 10, 46, 7, 6, 10, 6, 14, 8, 34, 0)
s = 159: (0, 19, 9, 54, 5, 9, 11, 5, 15, 17, 17, 0)
s = 160: (0, 18, 8, 47, 4, 10, 6, 7, 13, 15, 26, 0)
s = 161: (0, 24, 8, 32, 7, 6, 12, 7, 13, 7, 38, 0)
s = 162: (0, 24, 9, 42, 4, 7, 8, 11, 16, 18, 23, 0)
s = 163: (0, 30, 15, 38, 6, 9, 6, 14, 11, 14, 23, 0)
s = 164: (0, 17, 12, 43, 5, 8, 8, 9, 14, 9, 14, 0)
s = 165: (0, 23, 11, 82, 3, 11, 12, 13, 17, 10, 23, 0)
s = 166: (0, 28, 7, 58, 7, 6, 8, 8, 21, 7, 14, 0)
s = 167: (0, 31, 7, 48, 5, 6, 7, 9, 17, 11, 23, 0)
s = 168: (0, 19, 11, 37, 7, 7, 11, 8, 12, 17, 28, 0)
s = 169: (0, 20, 9, 54, 5, 8, 6, 7, 18, 8, 22, 0)
s = 170: (0, 29, 10, 54, 5, 8, 5, 12, 9, 11, 19, 0)
s = 171: (0, 33, 14, 40, 4, 9, 7, 11, 13, 10, 26, 0)
s = 172: (0, 27, 7, 67, 9, 6, 8, 12, 13, 8, 23, 0)
s = 173: (0, 20, 11, 66, 7, 7, 8, 10, 15, 7, 27, 0)
s = 174: (0, 23, 15, 34, 6, 10, 9, 9, 11, 12, 19, 0)
s = 175: (0, 32, 10, 34, 7, 6, 5, 6, 13, 7, 22, 0)
s = 176: (0, 23, 10, 31, 5, 6, 6, 7, 12, 14, 25, 0)
s = 177: (0, 35, 8, 32, 7, 8, 12, 13, 14, 10, 22, 0)
s = 178: (0, 23, 11, 35, 7, 8, 8, 7, 19, 9, 26, 0)
s = 179: (0, 35, 8, 53, 9, 8, 12, 7, 16, 8, 24, 0)
s = 180: (0, 15, 10, 30, 4, 10, 9, 7, 12, 10, 17, 0)
s = 181: (0, 24, 8, 62, 6, 7, 9, 10, 19, 13, 38, 0)
s = 182: (0, 27, 8, 43, 5, 11, 11, 11, 10, 14, 29, 0)
s = 183: (0, 20, 8, 46, 6, 7, 10, 7, 14, 13, 29, 0)
s = 184: (0, 32, 8, 45, 5, 13, 7, 5, 24, 7, 25, 0)
s = 185: (0, 22, 12, 40, 4, 8, 10, 11, 17, 10, 23, 0)
s = 186: (0, 28, 10, 47, 5, 5, 13, 7, 12, 9, 23, 0)
s = 187: (0, 20, 7, 29, 5, 7, 8, 5, 24, 14, 28, 0)
s = 188: (0, 33, 12, 44, 7, 7, 12, 9, 11, 16, 32, 0)
s = 189: (0, 28, 11, 50, 3, 6, 9, 14, 9, 7, 33, 0)
s = 190: (0, 36, 10, 47, 4, 11, 8, 10, 10, 8, 33, 0)
s = 191: (0, 22, 15, 43, 4, 10, 10, 14, 8, 7, 24, 0)
s = 192: (0, 14, 9, 49, 6, 8, 8, 8, 21, 10, 31, 0)
s = 193: (0, 20, 9, 55, 6, 8, 11, 12, 13, 10, 26, 0)
s = 194: (0, 33, 12, 42, 6, 5, 10, 10, 10, 8, 15, 0)
s = 195: (0, 16, 8, 49, 7, 5, 8, 9, 9, 7, 40, 0)
s = 196: (0, 18, 8, 50, 5, 9, 8, 10, 12, 9, 18, 0)
s = 197: (0, 21, 11, 57, 4, 9, 10, 8, 16, 8, 18, 0)
s = 198: (0, 18, 13, 38, 8, 12, 7, 9, 13, 7, 22, 0)
s = 199: (0, 26, 19, 52, 5, 7, 11, 8, 9, 8, 15, 0)
s = 200: (0, 39, 10, 42, 4, 12, 11, 7, 18, 8, 26, 0)
************************************************************************
ES/LS-VALUES:
jobnr.   ES(i)    LS(i)
------------------------------------------------------------------------
  0        0        0
  1        0       59
  2        0       54
  3        0       51
  4        3       58
  5        8       65
  6        5       65
  7        8       60
  8        9       62
  9        8       68
 10        9       67
 11       19       72
************************************************************************
BIG-M-VALUES:
M1 = 35, M2 = 237
************************************************************************
